27 3
3 4 4
0 0 0 0 25 2 3 4 5 6 7 8 9 10 11 12 13 14 15 16 17 18 19 20 21 22 23 24 25 26
2 0 0 1 5 27 17 7 25 18
4 1 1 0 1 27
3 1 2 1 3 27 23 18
4 0 0 1 6 27 24 18 25 23 12
1 0 0 2 4 27 21 9 25
2 1 1 1 6 27 23 23 17 25 9
5 1 0 0 2 27 17
4 0 1 2 3 27 11 11
3 1 0 1 6 27 15 25 26 15 22
3 1 2 1 4 27 12 17 25
3 1 1 2 3 27 25 25
2 0 2 0 2 27 15
1 1 2 0 3 27 16 23
3 1 0 1 3 27 24 18
5 0 2 2 3 27 19 23
2 1 1 1 2 27 18
3 1 2 0 1 27
2 1 2 0 3 27 26 26
1 1 2 2 2 27 25
1 0 1 0 2 27 23
4 1 0 2 1 27
1 0 0 2 1 27
3 0 2 2 2 27 25
4 1 1 1 1 27
3 1 0 1 1 27
0 0 0 0 0
